55065
50, 24, 35, 5, 41, 32, 8, 38, 44, 19, 49, 48, 17, 23, 21, 29, 22, 10, 9, 14, 2, 16, 39, 46, 36, 15, 52, 45, 11, 25, 31, 1, 27, 33, 42, 18, 12, 4, 30, 47, 54, 34, 53, 26, 55, 28, 3, 6, 43, 13, 51, 40, 37, 7, 20
